Route #1: 20 52 26 61 51 22 41 
Route #2: 4 54 44 9 12 2 17 
Route #3: 38 23 55 11 40 50 
Route #4: 19 53 29 42 36 6 32 58 10 25 
Route #5: 33 8 37 49 57 
Route #6: 27 43 65 66 35 15 
Route #7: 31 28 24 18 67 3 39 63 
Route #8: 1 56 30 21 59 45 48 34 16 46 
Route #9: 47 7 13 5 62 14 60 64 
cost 1510.87
execution_time 30.237
